c defined variables: 24 25 26 27 28 29 30 31 32 33 34 35 36 37 38 39 40 41 42 43 44 45 46 49 50 51 52 53 56 57 58 59 62 63 64 67 68 69 70 71 75 76 77 78 79 80 81 84 85 86 87 88 89 90 91 92 93 94 95 96 97 98 99 100 101 102 103 104 105 107 108 109 110 111 112 113 114 115 116 117 118 119 120 121 122 123 124 125 126 127 128 129 130 131 132 133 134 135 136 137 138 
p cnf 580 831
a 5 6 7 8 10 11 12 13 14 15 16 17 18 19 20 21 0
e 47 48 54 55 60 61 65 66 72 73 74 82 83 106 24 25 26 27 28 29 30 31 32 33 34 35 36 37 38 39 40 41 42 43 44 45 46 49 50 51 52 53 56 57 58 59 62 63 64 67 68 69 70 71 75 76 77 78 79 80 81 84 85 86 87 88 89 90 91 92 93 94 95 96 97 98 99 100 101 102 103 104 105 107 108 109 110 111 112 113 114 115 116 117 118 119 120 121 122 123 124 125 126 127 128 129 130 131 132 133 134 135 136 137 138 486 487 488 489 490 491 492 493 494 495 496 497 498 499 500 501 502 503 504 505 506 507 508 509 510 511 512 513 514 515 516 517 518 519 520 521 522 523 524 525 526 527 528 529 530 531 532 533 534 535 536 537 538 539 540 541 542 543 544 545 546 547 548 549 550 551 552 553 554 555 556 557 558 559 560 561 562 563 564 565 566 567 568 569 570 571 572 573 574 575 576 577 578 579 580 0
d 1 5 6 7 8 10 11 12 13 14 15 0
d 2 5 6 7 8 10 11 12 13 14 15 0
d 3 5 6 7 8 10 11 12 13 14 15 0
d 4 5 6 7 8 10 11 12 13 14 15 0
d 9 5 6 7 8 10 11 12 13 14 15 0
d 22 10 11 12 13 14 15 0
d 23 16 17 18 19 20 21 0
487 -24 0
-487 24 0
488 -25 0
-488 25 0
489 -26 0
-489 26 0
490 -27 0
-490 27 0
491 -28 0
-491 28 0
492 -29 0
-492 29 0
493 -30 0
-493 30 0
494 -31 0
-494 31 0
495 -32 0
-495 32 0
496 -33 0
-496 33 0
497 -34 0
-497 34 0
498 -35 0
-498 35 0
499 -36 0
-499 36 0
500 -37 0
-500 37 0
501 -38 0
-501 38 0
502 -39 0
-502 39 0
503 -40 0
-503 40 0
504 -41 0
-504 41 0
505 -42 0
-505 42 0
506 -43 0
-506 43 0
507 -44 0
-507 44 0
508 -45 0
-508 45 0
509 -46 0
-509 46 0
510 -49 0
-510 49 0
-486 -50 0
486 50 0
511 -51 0
-511 51 0
512 -52 0
-512 52 0
513 -53 0
-513 53 0
514 -56 0
-514 56 0
515 -57 0
-515 57 0
516 -58 0
-516 58 0
517 -59 0
-517 59 0
518 -62 0
-518 62 0
519 -63 0
-519 63 0
-520 -64 0
520 64 0
521 -67 0
-521 67 0
522 -68 0
-522 68 0
523 -69 0
-523 69 0
524 -70 0
-524 70 0
525 -71 0
-525 71 0
526 -75 0
-526 75 0
527 -76 0
-527 76 0
528 -77 0
-528 77 0
529 -78 0
-529 78 0
530 -79 0
-530 79 0
531 -80 0
-531 80 0
532 -81 0
-532 81 0
533 -84 0
-533 84 0
534 -85 0
-534 85 0
535 -86 0
-535 86 0
536 -87 0
-536 87 0
537 -88 0
-537 88 0
538 -89 0
-538 89 0
539 -90 0
-539 90 0
540 -91 0
-540 91 0
541 -92 0
-541 92 0
-542 -93 0
542 93 0
543 -94 0
-543 94 0
544 -95 0
-544 95 0
545 -96 0
-545 96 0
546 -97 0
-546 97 0
547 -98 0
-547 98 0
548 -99 0
-548 99 0
549 -100 0
-549 100 0
550 -101 0
-550 101 0
551 -102 0
-551 102 0
552 -103 0
-552 103 0
553 -104 0
-553 104 0
554 -105 0
-554 105 0
555 -107 0
-555 107 0
556 -108 0
-556 108 0
557 -109 0
-557 109 0
558 -110 0
-558 110 0
559 -111 0
-559 111 0
-560 -112 0
560 112 0
561 -113 0
-561 113 0
562 -114 0
-562 114 0
563 -115 0
-563 115 0
564 -116 0
-564 116 0
-565 -117 0
565 117 0
566 -118 0
-566 118 0
567 -119 0
-567 119 0
568 -120 0
-568 120 0
569 -121 0
-569 121 0
570 -122 0
-570 122 0
571 -123 0
-571 123 0
-486 -124 0
486 124 0
572 -125 0
-572 125 0
573 -126 0
-573 126 0
574 -127 0
-574 127 0
575 -128 0
-575 128 0
-486 -129 0
486 129 0
576 -130 0
-576 130 0
577 -131 0
-577 131 0
578 -132 0
-578 132 0
579 -133 0
-579 133 0
580 -134 0
-580 134 0
-486 -135 0
486 135 0
486 -136 0
-486 136 0
486 -137 0
-486 137 0
486 -138 0
-486 138 0
-24 -20 0
-24 14 0
24 20 -14 0
-25 20 0
-25 -14 0
25 -20 14 0
-26 -24 0
-26 -25 0
26 24 25 0
-27 -21 0
-27 15 0
27 21 -15 0
-28 21 0
-28 -15 0
28 -21 15 0
-29 -27 0
-29 -28 0
29 27 28 0
-30 26 0
-30 29 0
30 -26 -29 0
-31 -16 0
-31 10 0
31 16 -10 0
-32 16 0
-32 -10 0
32 -16 10 0
-33 -31 0
-33 -32 0
33 31 32 0
-34 -17 0
-34 11 0
34 17 -11 0
-35 17 0
-35 -11 0
35 -17 11 0
-36 -34 0
-36 -35 0
36 34 35 0
-37 33 0
-37 36 0
37 -33 -36 0
-38 -18 0
-38 12 0
38 18 -12 0
-39 18 0
-39 -12 0
39 -18 12 0
-40 -38 0
-40 -39 0
40 38 39 0
-41 -19 0
-41 13 0
41 19 -13 0
-42 19 0
-42 -13 0
42 -19 13 0
-43 -41 0
-43 -42 0
43 41 42 0
-44 40 0
-44 43 0
44 -40 -43 0
-45 37 0
-45 44 0
45 -37 -44 0
-46 30 0
-46 45 0
46 -30 -45 0
-47 23 0
-47 -22 0
47 -23 22 0
-48 -23 0
-48 22 0
48 23 -22 0
-49 -47 0
-49 -48 0
49 47 48 0
-50 46 0
-50 -49 0
50 -46 49 0
-51 14 0
-51 10 0
51 -14 -10 0
-52 13 0
-52 10 0
52 -13 -10 0
-53 12 0
-53 10 0
53 -12 -10 0
-54 -5 0
-54 -4 0
54 5 4 0
55 1 0
55 -54 0
-55 -1 54 0
-56 6 0
-56 55 0
56 -6 -55 0
-57 -6 0
-57 -55 0
57 6 55 0
-58 -56 0
-58 -57 0
58 56 57 0
-59 -5 0
-59 58 0
59 5 -58 0
-60 5 0
-60 2 0
60 -5 -2 0
-61 6 0
-61 1 0
61 -6 -1 0
-62 60 0
-62 61 0
62 -60 -61 0
-63 -60 0
-63 -61 0
63 60 61 0
64 -62 0
64 -63 0
-64 62 63 0
-65 -4 0
-65 -64 0
65 4 64 0
-66 4 0
-66 2 0
66 -4 -2 0
-67 -65 0
-67 -66 0
67 65 66 0
-68 7 0
-68 67 0
68 -7 -67 0
-69 -7 0
-69 -67 0
69 7 67 0
-70 -68 0
-70 -69 0
70 68 69 0
-71 59 0
-71 70 0
71 -59 -70 0
-72 5 0
-72 3 0
72 -5 -3 0
-73 7 0
-73 1 0
73 -7 -1 0
-74 6 0
-74 2 0
74 -6 -2 0
-75 74 0
-75 -62 0
75 -74 62 0
-76 -73 0
-76 75 0
76 73 -75 0
-77 73 0
-77 -75 0
77 -73 75 0
-78 -76 0
-78 -77 0
78 76 77 0
-79 -72 0
-79 -78 0
79 72 78 0
-80 72 0
-80 78 0
80 -72 -78 0
-81 -79 0
-81 -80 0
81 79 80 0
-82 -4 0
-82 -81 0
82 4 81 0
-83 4 0
-83 3 0
83 -4 -3 0
-84 -82 0
-84 -83 0
84 82 83 0
-85 8 0
-85 84 0
85 -8 -84 0
-86 -8 0
-86 -84 0
86 8 84 0
-87 -85 0
-87 -86 0
87 85 86 0
-88 71 0
-88 87 0
88 -71 -87 0
-89 53 0
-89 -88 0
89 -53 88 0
-90 52 0
-90 89 0
90 -52 -89 0
-91 51 0
-91 90 0
91 -51 -90 0
-92 -51 0
-92 -90 0
92 51 90 0
93 -91 0
93 -92 0
-93 91 92 0
-94 -20 0
-94 -93 0
94 20 93 0
-95 20 0
-95 93 0
95 -20 -93 0
-96 -94 0
-96 -95 0
96 94 95 0
-97 15 0
-97 10 0
97 -15 -10 0
-98 97 0
-98 -91 0
98 -97 91 0
-99 -97 0
-99 91 0
99 97 -91 0
-100 -98 0
-100 -99 0
100 98 99 0
-101 -21 0
-101 -100 0
101 21 100 0
-102 21 0
-102 100 0
102 -21 -100 0
-103 -101 0
-103 -102 0
103 101 102 0
-104 96 0
-104 103 0
104 -96 -103 0
-105 11 0
-105 10 0
105 -11 -10 0
-106 -9 0
-106 -105 0
106 9 105 0
-107 -17 0
-107 -106 0
107 17 106 0
-108 17 0
-108 106 0
108 -17 -106 0
-109 -107 0
-109 -108 0
109 107 108 0
-110 16 0
-110 109 0
110 -16 -109 0
-111 -53 0
-111 88 0
111 53 -88 0
112 -89 0
112 -111 0
-112 89 111 0
-113 -18 0
-113 -112 0
113 18 112 0
-114 18 0
-114 112 0
114 -18 -112 0
-115 -113 0
-115 -114 0
115 113 114 0
-116 -52 0
-116 -89 0
116 52 89 0
117 -90 0
117 -116 0
-117 90 116 0
-118 -19 0
-118 -117 0
118 19 117 0
-119 19 0
-119 117 0
119 -19 -117 0
-120 -118 0
-120 -119 0
120 118 119 0
-121 115 0
-121 120 0
121 -115 -120 0
-122 110 0
-122 121 0
122 -110 -121 0
-123 104 0
-123 122 0
123 -104 -122 0
-124 123 0
-124 48 0
124 -123 -48 0
-125 12 0
-125 52 0
125 -12 -52 0
-126 125 0
-126 51 0
126 -125 -51 0
-127 126 0
-127 97 0
127 -126 -97 0
-128 127 0
-128 105 0
128 -127 -105 0
-129 22 0
-129 128 0
129 -22 -128 0
-130 -15 0
-130 -14 0
130 15 14 0
-131 -11 0
-131 -10 0
131 11 10 0
-132 -13 0
-132 -12 0
132 13 12 0
-133 131 0
-133 132 0
133 -131 -132 0
-134 130 0
-134 133 0
134 -130 -133 0
-135 -22 0
-135 134 0
135 22 -134 0
-136 -129 0
-136 -135 0
136 129 135 0
-137 -124 0
-137 136 0
137 124 -136 0
-138 -50 0
-138 137 0
138 50 -137 0
138 0
486 0
14 -487 0
-20 -487 0
-14 20 487 0
-14 -488 0
20 -488 0
14 -20 488 0
-24 -489 0
-25 -489 0
24 25 489 0
15 -490 0
-21 -490 0
-15 21 490 0
-15 -491 0
21 -491 0
15 -21 491 0
-27 -492 0
-28 -492 0
27 28 492 0
26 -493 0
29 -493 0
-26 -29 493 0
10 -494 0
-16 -494 0
-10 16 494 0
-10 -495 0
16 -495 0
10 -16 495 0
-31 -496 0
-32 -496 0
31 32 496 0
11 -497 0
-17 -497 0
-11 17 497 0
-11 -498 0
17 -498 0
11 -17 498 0
-34 -499 0
-35 -499 0
34 35 499 0
33 -500 0
36 -500 0
-33 -36 500 0
12 -501 0
-18 -501 0
-12 18 501 0
-12 -502 0
18 -502 0
12 -18 502 0
-38 -503 0
-39 -503 0
38 39 503 0
13 -504 0
-19 -504 0
-13 19 504 0
-13 -505 0
19 -505 0
13 -19 505 0
-41 -506 0
-42 -506 0
41 42 506 0
40 -507 0
43 -507 0
-40 -43 507 0
37 -508 0
44 -508 0
-37 -44 508 0
30 -509 0
45 -509 0
-30 -45 509 0
-47 -510 0
-48 -510 0
47 48 510 0
10 -511 0
14 -511 0
-10 -14 511 0
10 -512 0
13 -512 0
-10 -13 512 0
10 -513 0
12 -513 0
-10 -12 513 0
6 -514 0
55 -514 0
-6 -55 514 0
-6 -515 0
-55 -515 0
6 55 515 0
-56 -516 0
-57 -516 0
56 57 516 0
-5 -517 0
58 -517 0
5 -58 517 0
60 -518 0
61 -518 0
-60 -61 518 0
-60 -519 0
-61 -519 0
60 61 519 0
-62 -520 0
-63 -520 0
62 63 520 0
-65 -521 0
-66 -521 0
65 66 521 0
7 -522 0
67 -522 0
-7 -67 522 0
-7 -523 0
-67 -523 0
7 67 523 0
-68 -524 0
-69 -524 0
68 69 524 0
59 -525 0
70 -525 0
-59 -70 525 0
-62 -526 0
74 -526 0
62 -74 526 0
-73 -527 0
75 -527 0
73 -75 527 0
73 -528 0
-75 -528 0
-73 75 528 0
-76 -529 0
-77 -529 0
76 77 529 0
-72 -530 0
-78 -530 0
72 78 530 0
72 -531 0
78 -531 0
-72 -78 531 0
-79 -532 0
-80 -532 0
79 80 532 0
-82 -533 0
-83 -533 0
82 83 533 0
8 -534 0
84 -534 0
-8 -84 534 0
-8 -535 0
-84 -535 0
8 84 535 0
-85 -536 0
-86 -536 0
85 86 536 0
71 -537 0
87 -537 0
-71 -87 537 0
53 -538 0
-88 -538 0
-53 88 538 0
52 -539 0
89 -539 0
-52 -89 539 0
51 -540 0
90 -540 0
-51 -90 540 0
-51 -541 0
-90 -541 0
51 90 541 0
-91 -542 0
-92 -542 0
91 92 542 0
-20 -543 0
-93 -543 0
20 93 543 0
20 -544 0
93 -544 0
-20 -93 544 0
-94 -545 0
-95 -545 0
94 95 545 0
10 -546 0
15 -546 0
-10 -15 546 0
-91 -547 0
97 -547 0
91 -97 547 0
91 -548 0
-97 -548 0
-91 97 548 0
-98 -549 0
-99 -549 0
98 99 549 0
-21 -550 0
-100 -550 0
21 100 550 0
21 -551 0
100 -551 0
-21 -100 551 0
-101 -552 0
-102 -552 0
101 102 552 0
96 -553 0
103 -553 0
-96 -103 553 0
10 -554 0
11 -554 0
-10 -11 554 0
-17 -555 0
-106 -555 0
17 106 555 0
17 -556 0
106 -556 0
-17 -106 556 0
-107 -557 0
-108 -557 0
107 108 557 0
16 -558 0
109 -558 0
-16 -109 558 0
-53 -559 0
88 -559 0
53 -88 559 0
-89 -560 0
-111 -560 0
89 111 560 0
-18 -561 0
-112 -561 0
18 112 561 0
18 -562 0
112 -562 0
-18 -112 562 0
-113 -563 0
-114 -563 0
113 114 563 0
-52 -564 0
-89 -564 0
52 89 564 0
-90 -565 0
-116 -565 0
90 116 565 0
-19 -566 0
-117 -566 0
19 117 566 0
19 -567 0
117 -567 0
-19 -117 567 0
-118 -568 0
-119 -568 0
118 119 568 0
115 -569 0
120 -569 0
-115 -120 569 0
110 -570 0
121 -570 0
-110 -121 570 0
104 -571 0
122 -571 0
-104 -122 571 0
12 -572 0
52 -572 0
-12 -52 572 0
51 -573 0
125 -573 0
-51 -125 573 0
97 -574 0
126 -574 0
-97 -126 574 0
105 -575 0
127 -575 0
-105 -127 575 0
-14 -576 0
-15 -576 0
14 15 576 0
-10 -577 0
-11 -577 0
10 11 577 0
-12 -578 0
-13 -578 0
12 13 578 0
131 -579 0
132 -579 0
-131 -132 579 0
130 -580 0
133 -580 0
-130 -133 580 0
